25794
0 0 0 0 0 1 0 0 1 0 0 1 0 1 0 0 0 1 1 1 0 1 0 0 1 0 0 1 0 1 
18 19 21 27 21 11 21 27 18 17 29 17 13 13 19 18 13 13 27 27 18 21 5 24 13 18 27 19 29 21 19 19 19 21 27 19 8 8 24 21 18 8 19 29 8 19 13 21 19 17 24 24 24 21 8 19 11 8 18 11 29 17 18 8 13 11 5 17 19 11 18 11 19 8 5 13 8 5 8 24 13 17 8 11 29 13 19 5 27 18 17 19 11 11 5 13 11 19 17 17 17 21 11 18 29 24 29 24 27 13 19 29 27 11 11 8 17 11 17 8 8 11 17 19 19 21 21 11 19 17 11 24 11 8 5 8 13 13 17 17 11 27 11 11 11 5 24 21 27 11 24 17 5 17 8 11 5 21 13 13 13 27 13 24 5 27 5 29 13 21 5 8 19 17 29 21 24 13 29 13 5 21 21 19 11 8 11 13 17 21 21 21 19 29 18 19 18 21 13 19 
